c sudoku, order: 9, holes: 64
c 
c 4.....8.5
c .3.......
c ...7.....
c .2.....6.
c ....8.4..
c ....1....
c ...6.3.7.
c 5..2.....
c 1.4......
c 
p cnf 301 2780
-1 -2 0
-1 -3 0
-1 -4 0
-2 -3 0
-2 -4 0
-3 -4 0
-5 -6 0
-5 -7 0
-5 -8 0
-5 -9 0
-6 -7 0
-6 -8 0
-6 -9 0
-7 -8 0
-7 -9 0
-8 -9 0
-10 -11 0
-10 -12 0
-11 -12 0
-13 -14 0
-13 -15 0
-13 -16 0
-14 -15 0
-14 -16 0
-15 -16 0
-17 -18 0
-17 -19 0
-17 -20 0
-18 -19 0
-18 -20 0
-19 -20 0
-21 -22 0
-21 -23 0
-21 -24 0
-22 -23 0
-22 -24 0
-23 -24 0
-25 -26 0
-25 -27 0
-25 -28 0
-25 -29 0
-26 -27 0
-26 -28 0
-26 -29 0
-27 -28 0
-27 -29 0
-28 -29 0
-30 -31 0
-30 -32 0
-30 -33 0
-30 -34 0
-30 -35 0
-30 -36 0
-31 -32 0
-31 -33 0
-31 -34 0
-31 -35 0
-31 -36 0
-32 -33 0
-32 -34 0
-32 -35 0
-32 -36 0
-33 -34 0
-33 -35 0
-33 -36 0
-34 -35 0
-34 -36 0
-35 -36 0
-37 -38 0
-37 -39 0
-37 -40 0
-37 -41 0
-38 -39 0
-38 -40 0
-38 -41 0
-39 -40 0
-39 -41 0
-40 -41 0
-42 -43 0
-42 -44 0
-42 -45 0
-42 -46 0
-43 -44 0
-43 -45 0
-43 -46 0
-44 -45 0
-44 -46 0
-45 -46 0
-47 -48 0
-47 -49 0
-47 -50 0
-47 -51 0
-47 -52 0
-47 -53 0
-48 -49 0
-48 -50 0
-48 -51 0
-48 -52 0
-48 -53 0
-49 -50 0
-49 -51 0
-49 -52 0
-49 -53 0
-50 -51 0
-50 -52 0
-50 -53 0
-51 -52 0
-51 -53 0
-52 -53 0
-54 -55 0
-54 -56 0
-54 -57 0
-54 -58 0
-55 -56 0
-55 -57 0
-55 -58 0
-56 -57 0
-56 -58 0
-57 -58 0
-59 -60 0
-59 -61 0
-59 -62 0
-60 -61 0
-60 -62 0
-61 -62 0
-63 -64 0
-63 -65 0
-63 -66 0
-63 -67 0
-63 -68 0
-64 -65 0
-64 -66 0
-64 -67 0
-64 -68 0
-65 -66 0
-65 -67 0
-65 -68 0
-66 -67 0
-66 -68 0
-67 -68 0
-69 -70 0
-69 -71 0
-69 -72 0
-70 -71 0
-70 -72 0
-71 -72 0
-73 -74 0
-73 -75 0
-73 -76 0
-73 -77 0
-74 -75 0
-74 -76 0
-74 -77 0
-75 -76 0
-75 -77 0
-76 -77 0
-78 -79 0
-78 -80 0
-78 -81 0
-78 -82 0
-78 -83 0
-79 -80 0
-79 -81 0
-79 -82 0
-79 -83 0
-80 -81 0
-80 -82 0
-80 -83 0
-81 -82 0
-81 -83 0
-82 -83 0
-84 -85 0
-84 -86 0
-84 -87 0
-84 -88 0
-84 -89 0
-85 -86 0
-85 -87 0
-85 -88 0
-85 -89 0
-86 -87 0
-86 -88 0
-86 -89 0
-87 -88 0
-87 -89 0
-88 -89 0
-90 -91 0
-90 -92 0
-90 -93 0
-90 -94 0
-90 -95 0
-90 -96 0
-91 -92 0
-91 -93 0
-91 -94 0
-91 -95 0
-91 -96 0
-92 -93 0
-92 -94 0
-92 -95 0
-92 -96 0
-93 -94 0
-93 -95 0
-93 -96 0
-94 -95 0
-94 -96 0
-95 -96 0
-97 -98 0
-97 -99 0
-97 -100 0
-97 -101 0
-98 -99 0
-98 -100 0
-98 -101 0
-99 -100 0
-99 -101 0
-100 -101 0
-102 -103 0
-102 -104 0
-102 -105 0
-102 -106 0
-103 -104 0
-103 -105 0
-103 -106 0
-104 -105 0
-104 -106 0
-105 -106 0
-107 -108 0
-107 -109 0
-107 -110 0
-107 -111 0
-107 -112 0
-108 -109 0
-108 -110 0
-108 -111 0
-108 -112 0
-109 -110 0
-109 -111 0
-109 -112 0
-110 -111 0
-110 -112 0
-111 -112 0
-113 -114 0
-113 -115 0
-113 -116 0
-114 -115 0
-114 -116 0
-115 -116 0
-117 -118 0
-117 -119 0
-117 -120 0
-117 -121 0
-117 -122 0
-118 -119 0
-118 -120 0
-118 -121 0
-118 -122 0
-119 -120 0
-119 -121 0
-119 -122 0
-120 -121 0
-120 -122 0
-121 -122 0
-123 -124 0
-123 -125 0
-123 -126 0
-124 -125 0
-124 -126 0
-125 -126 0
-127 -128 0
-127 -129 0
-127 -130 0
-127 -131 0
-128 -129 0
-128 -130 0
-128 -131 0
-129 -130 0
-129 -131 0
-130 -131 0
-132 -133 0
-132 -134 0
-132 -135 0
-133 -134 0
-133 -135 0
-134 -135 0
-136 -137 0
-136 -138 0
-136 -139 0
-136 -140 0
-137 -138 0
-137 -139 0
-137 -140 0
-138 -139 0
-138 -140 0
-139 -140 0
-141 -142 0
-141 -143 0
-141 -144 0
-141 -145 0
-142 -143 0
-142 -144 0
-142 -145 0
-143 -144 0
-143 -145 0
-144 -145 0
-146 -147 0
-146 -148 0
-146 -149 0
-147 -148 0
-147 -149 0
-148 -149 0
-150 -151 0
-150 -152 0
-150 -153 0
-150 -154 0
-151 -152 0
-151 -153 0
-151 -154 0
-152 -153 0
-152 -154 0
-153 -154 0
-155 -156 0
-155 -157 0
-155 -158 0
-155 -159 0
-155 -160 0
-156 -157 0
-156 -158 0
-156 -159 0
-156 -160 0
-157 -158 0
-157 -159 0
-157 -160 0
-158 -159 0
-158 -160 0
-159 -160 0
-161 -162 0
-161 -163 0
-162 -163 0
-164 -165 0
-164 -166 0
-164 -167 0
-164 -168 0
-165 -166 0
-165 -167 0
-165 -168 0
-166 -167 0
-166 -168 0
-167 -168 0
-169 -170 0
-169 -171 0
-169 -172 0
-169 -173 0
-170 -171 0
-170 -172 0
-170 -173 0
-171 -172 0
-171 -173 0
-172 -173 0
-174 -175 0
-174 -176 0
-174 -177 0
-174 -178 0
-175 -176 0
-175 -177 0
-175 -178 0
-176 -177 0
-176 -178 0
-177 -178 0
-179 -180 0
-179 -181 0
-179 -182 0
-179 -183 0
-180 -181 0
-180 -182 0
-180 -183 0
-181 -182 0
-181 -183 0
-182 -183 0
-184 -185 0
-184 -186 0
-184 -187 0
-184 -188 0
-184 -189 0
-185 -186 0
-185 -187 0
-185 -188 0
-185 -189 0
-186 -187 0
-186 -188 0
-186 -189 0
-187 -188 0
-187 -189 0
-188 -189 0
-190 -191 0
-190 -192 0
-190 -193 0
-190 -194 0
-190 -195 0
-191 -192 0
-191 -193 0
-191 -194 0
-191 -195 0
-192 -193 0
-192 -194 0
-192 -195 0
-193 -194 0
-193 -195 0
-194 -195 0
-196 -197 0
-196 -198 0
-196 -199 0
-197 -198 0
-197 -199 0
-198 -199 0
-200 -201 0
-200 -202 0
-200 -203 0
-200 -204 0
-200 -205 0
-201 -202 0
-201 -203 0
-201 -204 0
-201 -205 0
-202 -203 0
-202 -204 0
-202 -205 0
-203 -204 0
-203 -205 0
-204 -205 0
-206 -207 0
-206 -208 0
-206 -209 0
-206 -210 0
-207 -208 0
-207 -209 0
-207 -210 0
-208 -209 0
-208 -210 0
-209 -210 0
-211 -212 0
-211 -213 0
-211 -214 0
-211 -215 0
-212 -213 0
-212 -214 0
-212 -215 0
-213 -214 0
-213 -215 0
-214 -215 0
-216 -217 0
-216 -218 0
-216 -219 0
-216 -220 0
-217 -218 0
-217 -219 0
-217 -220 0
-218 -219 0
-218 -220 0
-219 -220 0
-221 -222 0
-221 -223 0
-222 -223 0
-224 -225 0
-226 -227 0
-226 -228 0
-227 -228 0
-229 -230 0
-229 -231 0
-230 -231 0
-232 -233 0
-232 -234 0
-232 -235 0
-233 -234 0
-233 -235 0
-234 -235 0
-236 -237 0
-236 -238 0
-236 -239 0
-236 -240 0
-237 -238 0
-237 -239 0
-237 -240 0
-238 -239 0
-238 -240 0
-239 -240 0
-241 -242 0
-241 -243 0
-241 -244 0
-242 -243 0
-242 -244 0
-243 -244 0
-245 -246 0
-245 -247 0
-245 -248 0
-245 -249 0
-246 -247 0
-246 -248 0
-246 -249 0
-247 -248 0
-247 -249 0
-248 -249 0
-250 -251 0
-250 -252 0
-251 -252 0
-253 -254 0
-253 -255 0
-253 -256 0
-253 -257 0
-254 -255 0
-254 -256 0
-254 -257 0
-255 -256 0
-255 -257 0
-256 -257 0
-258 -259 0
-258 -260 0
-258 -261 0
-259 -260 0
-259 -261 0
-260 -261 0
-262 -263 0
-262 -264 0
-262 -265 0
-262 -266 0
-263 -264 0
-263 -265 0
-263 -266 0
-264 -265 0
-264 -266 0
-265 -266 0
-267 -268 0
-267 -269 0
-267 -270 0
-267 -271 0
-267 -272 0
-268 -269 0
-268 -270 0
-268 -271 0
-268 -272 0
-269 -270 0
-269 -271 0
-269 -272 0
-270 -271 0
-270 -272 0
-271 -272 0
-273 -274 0
-273 -275 0
-273 -276 0
-274 -275 0
-274 -276 0
-275 -276 0
-277 -278 0
-277 -279 0
-278 -279 0
-280 -281 0
-280 -282 0
-281 -282 0
-283 -284 0
-283 -285 0
-283 -286 0
-284 -285 0
-284 -286 0
-285 -286 0
-287 -288 0
-287 -289 0
-287 -290 0
-287 -291 0
-288 -289 0
-288 -290 0
-288 -291 0
-289 -290 0
-289 -291 0
-290 -291 0
-292 -293 0
-292 -294 0
-292 -295 0
-292 -296 0
-293 -294 0
-293 -295 0
-293 -296 0
-294 -295 0
-294 -296 0
-295 -296 0
-297 -298 0
-297 -299 0
-297 -300 0
-297 -301 0
-298 -299 0
-298 -300 0
-298 -301 0
-299 -300 0
-299 -301 0
-300 -301 0
-1 -5 0
-1 -10 0
-1 -17 0
-1 -21 0
-5 -10 0
-5 -17 0
-5 -21 0
-10 -17 0
-10 -21 0
-17 -21 0
-6 -13 0
-6 -18 0
-6 -22 0
-13 -18 0
-13 -22 0
-18 -22 0
-11 -14 0
-11 -23 0
-14 -23 0
-2 -7 0
-2 -15 0
-2 -19 0
-7 -15 0
-7 -19 0
-15 -19 0
-3 -8 0
-4 -9 0
-4 -12 0
-4 -16 0
-4 -20 0
-4 -24 0
-9 -12 0
-9 -16 0
-9 -20 0
-9 -24 0
-12 -16 0
-12 -20 0
-12 -24 0
-16 -20 0
-16 -24 0
-20 -24 0
-30 -37 0
-30 -47 0
-30 -54 0
-30 -59 0
-30 -63 0
-37 -47 0
-37 -54 0
-37 -59 0
-37 -63 0
-47 -54 0
-47 -59 0
-47 -63 0
-54 -59 0
-54 -63 0
-59 -63 0
-25 -31 0
-25 -42 0
-25 -48 0
-25 -55 0
-25 -60 0
-25 -64 0
-31 -42 0
-31 -48 0
-31 -55 0
-31 -60 0
-31 -64 0
-42 -48 0
-42 -55 0
-42 -60 0
-42 -64 0
-48 -55 0
-48 -60 0
-48 -64 0
-55 -60 0
-55 -64 0
-60 -64 0
-38 -43 0
-38 -49 0
-38 -61 0
-38 -65 0
-43 -49 0
-43 -61 0
-43 -65 0
-49 -61 0
-49 -65 0
-61 -65 0
-32 -39 0
-32 -44 0
-32 -50 0
-39 -44 0
-39 -50 0
-44 -50 0
-26 -33 0
-26 -45 0
-26 -51 0
-26 -56 0
-26 -66 0
-33 -45 0
-33 -51 0
-33 -56 0
-33 -66 0
-45 -51 0
-45 -56 0
-45 -66 0
-51 -56 0
-51 -66 0
-56 -66 0
-27 -34 0
-27 -57 0
-27 -67 0
-34 -57 0
-34 -67 0
-57 -67 0
-28 -35 0
-28 -40 0
-28 -52 0
-35 -40 0
-35 -52 0
-40 -52 0
-29 -36 0
-29 -41 0
-29 -46 0
-29 -53 0
-29 -58 0
-29 -62 0
-29 -68 0
-36 -41 0
-36 -46 0
-36 -53 0
-36 -58 0
-36 -62 0
-36 -68 0
-41 -46 0
-41 -53 0
-41 -58 0
-41 -62 0
-41 -68 0
-46 -53 0
-46 -58 0
-46 -62 0
-46 -68 0
-53 -58 0
-53 -62 0
-53 -68 0
-58 -62 0
-58 -68 0
-62 -68 0
-73 -78 0
-73 -90 0
-73 -97 0
-73 -102 0
-73 -107 0
-78 -90 0
-78 -97 0
-78 -102 0
-78 -107 0
-90 -97 0
-90 -102 0
-90 -107 0
-97 -102 0
-97 -107 0
-102 -107 0
-69 -79 0
-69 -84 0
-69 -91 0
-69 -98 0
-69 -103 0
-69 -108 0
-79 -84 0
-79 -91 0
-79 -98 0
-79 -103 0
-79 -108 0
-84 -91 0
-84 -98 0
-84 -103 0
-84 -108 0
-91 -98 0
-91 -103 0
-91 -108 0
-98 -103 0
-98 -108 0
-103 -108 0
-85 -99 0
-85 -104 0
-85 -109 0
-99 -104 0
-99 -109 0
-104 -109 0
-86 -92 0
-86 -105 0
-86 -110 0
-92 -105 0
-92 -110 0
-105 -110 0
-74 -80 0
-74 -87 0
-74 -93 0
-80 -87 0
-80 -93 0
-87 -93 0
-70 -75 0
-70 -81 0
-70 -88 0
-70 -94 0
-70 -100 0
-70 -111 0
-75 -81 0
-75 -88 0
-75 -94 0
-75 -100 0
-75 -111 0
-81 -88 0
-81 -94 0
-81 -100 0
-81 -111 0
-88 -94 0
-88 -100 0
-88 -111 0
-94 -100 0
-94 -111 0
-100 -111 0
-71 -76 0
-71 -82 0
-71 -95 0
-76 -82 0
-76 -95 0
-82 -95 0
-72 -77 0
-72 -83 0
-72 -89 0
-72 -96 0
-72 -101 0
-72 -106 0
-72 -112 0
-77 -83 0
-77 -89 0
-77 -96 0
-77 -101 0
-77 -106 0
-77 -112 0
-83 -89 0
-83 -96 0
-83 -101 0
-83 -106 0
-83 -112 0
-89 -96 0
-89 -101 0
-89 -106 0
-89 -112 0
-96 -101 0
-96 -106 0
-96 -112 0
-101 -106 0
-101 -112 0
-106 -112 0
-117 -136 0
-117 -141 0
-136 -141 0
-113 -118 0
-113 -123 0
-113 -127 0
-113 -137 0
-113 -142 0
-118 -123 0
-118 -127 0
-118 -137 0
-118 -142 0
-123 -127 0
-123 -137 0
-123 -142 0
-127 -137 0
-127 -142 0
-137 -142 0
-124 -128 0
-124 -132 0
-128 -132 0
-119 -125 0
-119 -129 0
-119 -133 0
-119 -138 0
-125 -129 0
-125 -133 0
-125 -138 0
-129 -133 0
-129 -138 0
-133 -138 0
-114 -120 0
-114 -130 0
-114 -134 0
-114 -139 0
-114 -143 0
-120 -130 0
-120 -134 0
-120 -139 0
-120 -143 0
-130 -134 0
-130 -139 0
-130 -143 0
-134 -139 0
-134 -143 0
-139 -143 0
-115 -121 0
-115 -144 0
-121 -144 0
-116 -122 0
-116 -126 0
-116 -131 0
-116 -135 0
-116 -140 0
-116 -145 0
-122 -126 0
-122 -131 0
-122 -135 0
-122 -140 0
-122 -145 0
-126 -131 0
-126 -135 0
-126 -140 0
-126 -145 0
-131 -135 0
-131 -140 0
-131 -145 0
-135 -140 0
-135 -145 0
-140 -145 0
-150 -155 0
-150 -169 0
-150 -174 0
-155 -169 0
-155 -174 0
-169 -174 0
-164 -170 0
-164 -175 0
-170 -175 0
-146 -156 0
-146 -161 0
-146 -171 0
-146 -176 0
-156 -161 0
-156 -171 0
-156 -176 0
-161 -171 0
-161 -176 0
-171 -176 0
-151 -157 0
-151 -162 0
-151 -165 0
-151 -172 0
-157 -162 0
-157 -165 0
-157 -172 0
-162 -165 0
-162 -172 0
-165 -172 0
-147 -152 0
-147 -158 0
-147 -166 0
-152 -158 0
-152 -166 0
-158 -166 0
-148 -153 0
-148 -159 0
-148 -167 0
-148 -177 0
-153 -159 0
-153 -167 0
-153 -177 0
-159 -167 0
-159 -177 0
-167 -177 0
-149 -154 0
-149 -160 0
-149 -163 0
-149 -168 0
-149 -173 0
-149 -178 0
-154 -160 0
-154 -163 0
-154 -168 0
-154 -173 0
-154 -178 0
-160 -163 0
-160 -168 0
-160 -173 0
-160 -178 0
-163 -168 0
-163 -173 0
-163 -178 0
-168 -173 0
-168 -178 0
-173 -178 0
-200 -206 0
-200 -211 0
-200 -216 0
-206 -211 0
-206 -216 0
-211 -216 0
-179 -190 0
-179 -196 0
-179 -207 0
-179 -212 0
-179 -217 0
-190 -196 0
-190 -207 0
-190 -212 0
-190 -217 0
-196 -207 0
-196 -212 0
-196 -217 0
-207 -212 0
-207 -217 0
-212 -217 0
-184 -197 0
-184 -201 0
-197 -201 0
-185 -191 0
-185 -198 0
-185 -202 0
-185 -208 0
-185 -213 0
-191 -198 0
-191 -202 0
-191 -208 0
-191 -213 0
-198 -202 0
-198 -208 0
-198 -213 0
-202 -208 0
-202 -213 0
-208 -213 0
-180 -186 0
-180 -192 0
-180 -203 0
-186 -192 0
-186 -203 0
-192 -203 0
-181 -187 0
-181 -193 0
-181 -204 0
-181 -209 0
-181 -218 0
-187 -193 0
-187 -204 0
-187 -209 0
-187 -218 0
-193 -204 0
-193 -209 0
-193 -218 0
-204 -209 0
-204 -218 0
-209 -218 0
-182 -188 0
-182 -194 0
-182 -214 0
-182 -219 0
-188 -194 0
-188 -214 0
-188 -219 0
-194 -214 0
-194 -219 0
-214 -219 0
-183 -189 0
-183 -195 0
-183 -199 0
-183 -205 0
-183 -210 0
-183 -215 0
-183 -220 0
-189 -195 0
-189 -199 0
-189 -205 0
-189 -210 0
-189 -215 0
-189 -220 0
-195 -199 0
-195 -205 0
-195 -210 0
-195 -215 0
-195 -220 0
-199 -205 0
-199 -210 0
-199 -215 0
-199 -220 0
-205 -210 0
-205 -215 0
-205 -220 0
-210 -215 0
-210 -220 0
-215 -220 0
-232 -236 0
-221 -226 0
-221 -233 0
-221 -237 0
-226 -233 0
-226 -237 0
-233 -237 0
-229 -238 0
-230 -234 0
-222 -224 0
-222 -227 0
-222 -239 0
-224 -227 0
-224 -239 0
-227 -239 0
-223 -225 0
-223 -228 0
-223 -231 0
-223 -235 0
-223 -240 0
-225 -228 0
-225 -231 0
-225 -235 0
-225 -240 0
-228 -231 0
-228 -235 0
-228 -240 0
-231 -235 0
-231 -240 0
-235 -240 0
-253 -258 0
-253 -262 0
-253 -267 0
-258 -262 0
-258 -267 0
-262 -267 0
-245 -259 0
-245 -263 0
-245 -268 0
-259 -263 0
-259 -268 0
-263 -268 0
-250 -254 0
-250 -264 0
-250 -269 0
-254 -264 0
-254 -269 0
-264 -269 0
-241 -246 0
-241 -260 0
-241 -270 0
-246 -260 0
-246 -270 0
-260 -270 0
-242 -247 0
-242 -251 0
-242 -255 0
-247 -251 0
-247 -255 0
-251 -255 0
-243 -248 0
-243 -256 0
-243 -265 0
-243 -271 0
-248 -256 0
-248 -265 0
-248 -271 0
-256 -265 0
-256 -271 0
-265 -271 0
-244 -249 0
-244 -252 0
-244 -257 0
-244 -261 0
-244 -266 0
-244 -272 0
-249 -252 0
-249 -257 0
-249 -261 0
-249 -266 0
-249 -272 0
-252 -257 0
-252 -261 0
-252 -266 0
-252 -272 0
-257 -261 0
-257 -266 0
-257 -272 0
-261 -266 0
-261 -272 0
-266 -272 0
-287 -292 0
-287 -297 0
-292 -297 0
-288 -293 0
-288 -298 0
-293 -298 0
-277 -280 0
-277 -283 0
-277 -289 0
-277 -294 0
-280 -283 0
-280 -289 0
-280 -294 0
-283 -289 0
-283 -294 0
-289 -294 0
-273 -290 0
-273 -299 0
-290 -299 0
-274 -281 0
-274 -284 0
-281 -284 0
-275 -278 0
-275 -285 0
-275 -295 0
-275 -300 0
-278 -285 0
-278 -295 0
-278 -300 0
-285 -295 0
-285 -300 0
-295 -300 0
-276 -279 0
-276 -282 0
-276 -286 0
-276 -291 0
-276 -296 0
-276 -301 0
-279 -282 0
-279 -286 0
-279 -291 0
-279 -296 0
-279 -301 0
-282 -286 0
-282 -291 0
-282 -296 0
-282 -301 0
-286 -291 0
-286 -296 0
-286 -301 0
-291 -296 0
-291 -301 0
-296 -301 0
-25 -69 0
-25 -221 0
-69 -221 0
-113 -146 0
-113 -179 0
-146 -179 0
-26 -70 0
-26 -147 0
-26 -180 0
-70 -147 0
-70 -180 0
-147 -180 0
-27 -114 0
-27 -148 0
-27 -181 0
-114 -148 0
-114 -181 0
-148 -181 0
-28 -71 0
-28 -115 0
-28 -182 0
-28 -222 0
-71 -115 0
-71 -182 0
-71 -222 0
-115 -182 0
-115 -222 0
-182 -222 0
-29 -72 0
-29 -116 0
-29 -149 0
-29 -183 0
-29 -223 0
-72 -116 0
-72 -149 0
-72 -183 0
-72 -223 0
-116 -149 0
-116 -183 0
-116 -223 0
-149 -183 0
-149 -223 0
-183 -223 0
-1 -73 0
-1 -150 0
-73 -150 0
-74 -151 0
-74 -185 0
-151 -185 0
-2 -75 0
-2 -152 0
-2 -186 0
-2 -241 0
-2 -273 0
-75 -152 0
-75 -186 0
-75 -241 0
-75 -273 0
-152 -186 0
-152 -241 0
-152 -273 0
-186 -241 0
-186 -273 0
-241 -273 0
-3 -153 0
-3 -187 0
-3 -242 0
-3 -274 0
-153 -187 0
-153 -242 0
-153 -274 0
-187 -242 0
-187 -274 0
-242 -274 0
-76 -188 0
-76 -224 0
-76 -243 0
-76 -275 0
-188 -224 0
-188 -243 0
-188 -275 0
-224 -243 0
-224 -275 0
-243 -275 0
-4 -77 0
-4 -154 0
-4 -189 0
-4 -225 0
-4 -244 0
-4 -276 0
-77 -154 0
-77 -189 0
-77 -225 0
-77 -244 0
-77 -276 0
-154 -189 0
-154 -225 0
-154 -244 0
-154 -276 0
-189 -225 0
-189 -244 0
-189 -276 0
-225 -244 0
-225 -276 0
-244 -276 0
-5 -30 0
-5 -78 0
-5 -117 0
-5 -155 0
-30 -78 0
-30 -117 0
-30 -155 0
-78 -117 0
-78 -155 0
-117 -155 0
-6 -31 0
-6 -79 0
-6 -226 0
-31 -79 0
-31 -226 0
-79 -226 0
-118 -156 0
-118 -190 0
-118 -245 0
-156 -190 0
-156 -245 0
-190 -245 0
-32 -80 0
-32 -119 0
-32 -157 0
-32 -191 0
-80 -119 0
-80 -157 0
-80 -191 0
-119 -157 0
-119 -191 0
-157 -191 0
-7 -33 0
-7 -81 0
-7 -158 0
-7 -192 0
-7 -246 0
-33 -81 0
-33 -158 0
-33 -192 0
-33 -246 0
-81 -158 0
-81 -192 0
-81 -246 0
-158 -192 0
-158 -246 0
-192 -246 0
-8 -34 0
-8 -120 0
-8 -159 0
-8 -193 0
-8 -247 0
-34 -120 0
-34 -159 0
-34 -193 0
-34 -247 0
-120 -159 0
-120 -193 0
-120 -247 0
-159 -193 0
-159 -247 0
-193 -247 0
-35 -82 0
-35 -121 0
-35 -194 0
-35 -227 0
-35 -248 0
-82 -121 0
-82 -194 0
-82 -227 0
-82 -248 0
-121 -194 0
-121 -227 0
-121 -248 0
-194 -227 0
-194 -248 0
-227 -248 0
-9 -36 0
-9 -83 0
-9 -122 0
-9 -160 0
-9 -195 0
-9 -228 0
-9 -249 0
-36 -83 0
-36 -122 0
-36 -160 0
-36 -195 0
-36 -228 0
-36 -249 0
-83 -122 0
-83 -160 0
-83 -195 0
-83 -228 0
-83 -249 0
-122 -160 0
-122 -195 0
-122 -228 0
-122 -249 0
-160 -195 0
-160 -228 0
-160 -249 0
-195 -228 0
-195 -249 0
-228 -249 0
-10 -37 0
-11 -123 0
-11 -161 0
-11 -196 0
-123 -161 0
-123 -196 0
-161 -196 0
-38 -124 0
-38 -197 0
-124 -197 0
-39 -125 0
-39 -162 0
-39 -198 0
-39 -277 0
-125 -162 0
-125 -198 0
-125 -277 0
-162 -198 0
-162 -277 0
-198 -277 0
-40 -278 0
-12 -41 0
-12 -126 0
-12 -163 0
-12 -199 0
-12 -279 0
-41 -126 0
-41 -163 0
-41 -199 0
-41 -279 0
-126 -163 0
-126 -199 0
-126 -279 0
-163 -199 0
-163 -279 0
-199 -279 0
-13 -42 0
-13 -84 0
-42 -84 0
-14 -85 0
-14 -127 0
-85 -127 0
-43 -86 0
-43 -128 0
-43 -229 0
-43 -250 0
-86 -128 0
-86 -229 0
-86 -250 0
-128 -229 0
-128 -250 0
-229 -250 0
-44 -87 0
-44 -129 0
-44 -230 0
-44 -280 0
-87 -129 0
-87 -230 0
-87 -280 0
-129 -230 0
-129 -280 0
-230 -280 0
-15 -45 0
-15 -88 0
-45 -88 0
-130 -251 0
-130 -281 0
-251 -281 0
-16 -46 0
-16 -89 0
-16 -131 0
-16 -231 0
-16 -252 0
-16 -282 0
-46 -89 0
-46 -131 0
-46 -231 0
-46 -252 0
-46 -282 0
-89 -131 0
-89 -231 0
-89 -252 0
-89 -282 0
-131 -231 0
-131 -252 0
-131 -282 0
-231 -252 0
-231 -282 0
-252 -282 0
-17 -47 0
-17 -90 0
-17 -253 0
-47 -90 0
-47 -253 0
-90 -253 0
-18 -48 0
-18 -91 0
-18 -164 0
-18 -200 0
-48 -91 0
-48 -164 0
-48 -200 0
-91 -164 0
-91 -200 0
-164 -200 0
-49 -92 0
-49 -132 0
-49 -201 0
-49 -254 0
-92 -132 0
-92 -201 0
-92 -254 0
-132 -201 0
-132 -254 0
-201 -254 0
-50 -93 0
-50 -133 0
-50 -165 0
-50 -202 0
-50 -283 0
-93 -133 0
-93 -165 0
-93 -202 0
-93 -283 0
-133 -165 0
-133 -202 0
-133 -283 0
-165 -202 0
-165 -283 0
-202 -283 0
-19 -51 0
-19 -94 0
-19 -166 0
-19 -203 0
-51 -94 0
-51 -166 0
-51 -203 0
-94 -166 0
-94 -203 0
-166 -203 0
-134 -167 0
-134 -204 0
-134 -255 0
-134 -284 0
-167 -204 0
-167 -255 0
-167 -284 0
-204 -255 0
-204 -284 0
-255 -284 0
-52 -95 0
-52 -256 0
-52 -285 0
-95 -256 0
-95 -285 0
-256 -285 0
-20 -53 0
-20 -96 0
-20 -135 0
-20 -168 0
-20 -205 0
-20 -257 0
-20 -286 0
-53 -96 0
-53 -135 0
-53 -168 0
-53 -205 0
-53 -257 0
-53 -286 0
-96 -135 0
-96 -168 0
-96 -205 0
-96 -257 0
-96 -286 0
-135 -168 0
-135 -205 0
-135 -257 0
-135 -286 0
-168 -205 0
-168 -257 0
-168 -286 0
-205 -257 0
-205 -286 0
-257 -286 0
-54 -97 0
-54 -136 0
-54 -232 0
-54 -258 0
-97 -136 0
-97 -232 0
-97 -258 0
-136 -232 0
-136 -258 0
-232 -258 0
-55 -98 0
-55 -206 0
-55 -233 0
-55 -287 0
-98 -206 0
-98 -233 0
-98 -287 0
-206 -233 0
-206 -287 0
-233 -287 0
-99 -137 0
-99 -207 0
-99 -259 0
-99 -288 0
-137 -207 0
-137 -259 0
-137 -288 0
-207 -259 0
-207 -288 0
-259 -288 0
-138 -208 0
-138 -234 0
-138 -289 0
-208 -234 0
-208 -289 0
-234 -289 0
-56 -100 0
-56 -260 0
-56 -290 0
-100 -260 0
-100 -290 0
-260 -290 0
-57 -139 0
-57 -209 0
-139 -209 0
-58 -101 0
-58 -140 0
-58 -210 0
-58 -235 0
-58 -261 0
-58 -291 0
-101 -140 0
-101 -210 0
-101 -235 0
-101 -261 0
-101 -291 0
-140 -210 0
-140 -235 0
-140 -261 0
-140 -291 0
-210 -235 0
-210 -261 0
-210 -291 0
-235 -261 0
-235 -291 0
-261 -291 0
-21 -59 0
-21 -102 0
-21 -169 0
-21 -262 0
-59 -102 0
-59 -169 0
-59 -262 0
-102 -169 0
-102 -262 0
-169 -262 0
-22 -60 0
-22 -103 0
-22 -170 0
-22 -211 0
-22 -292 0
-60 -103 0
-60 -170 0
-60 -211 0
-60 -292 0
-103 -170 0
-103 -211 0
-103 -292 0
-170 -211 0
-170 -292 0
-211 -292 0
-23 -104 0
-23 -171 0
-23 -212 0
-23 -263 0
-23 -293 0
-104 -171 0
-104 -212 0
-104 -263 0
-104 -293 0
-171 -212 0
-171 -263 0
-171 -293 0
-212 -263 0
-212 -293 0
-263 -293 0
-61 -105 0
-61 -264 0
-105 -264 0
-172 -213 0
-172 -294 0
-213 -294 0
-214 -265 0
-214 -295 0
-265 -295 0
-24 -62 0
-24 -106 0
-24 -173 0
-24 -215 0
-24 -266 0
-24 -296 0
-62 -106 0
-62 -173 0
-62 -215 0
-62 -266 0
-62 -296 0
-106 -173 0
-106 -215 0
-106 -266 0
-106 -296 0
-173 -215 0
-173 -266 0
-173 -296 0
-215 -266 0
-215 -296 0
-266 -296 0
-63 -107 0
-63 -141 0
-63 -174 0
-63 -236 0
-63 -267 0
-107 -141 0
-107 -174 0
-107 -236 0
-107 -267 0
-141 -174 0
-141 -236 0
-141 -267 0
-174 -236 0
-174 -267 0
-236 -267 0
-64 -108 0
-64 -175 0
-64 -216 0
-64 -237 0
-64 -297 0
-108 -175 0
-108 -216 0
-108 -237 0
-108 -297 0
-175 -216 0
-175 -237 0
-175 -297 0
-216 -237 0
-216 -297 0
-237 -297 0
-109 -142 0
-109 -176 0
-109 -217 0
-109 -268 0
-109 -298 0
-142 -176 0
-142 -217 0
-142 -268 0
-142 -298 0
-176 -217 0
-176 -268 0
-176 -298 0
-217 -268 0
-217 -298 0
-268 -298 0
-65 -110 0
-65 -238 0
-65 -269 0
-110 -238 0
-110 -269 0
-238 -269 0
-66 -111 0
-66 -270 0
-66 -299 0
-111 -270 0
-111 -299 0
-270 -299 0
-67 -143 0
-67 -177 0
-67 -218 0
-143 -177 0
-143 -218 0
-177 -218 0
-144 -219 0
-144 -239 0
-144 -271 0
-144 -300 0
-219 -239 0
-219 -271 0
-219 -300 0
-239 -271 0
-239 -300 0
-271 -300 0
-68 -112 0
-68 -145 0
-68 -178 0
-68 -220 0
-68 -240 0
-68 -272 0
-68 -301 0
-112 -145 0
-112 -178 0
-112 -220 0
-112 -240 0
-112 -272 0
-112 -301 0
-145 -178 0
-145 -220 0
-145 -240 0
-145 -272 0
-145 -301 0
-178 -220 0
-178 -240 0
-178 -272 0
-178 -301 0
-220 -240 0
-220 -272 0
-220 -301 0
-240 -272 0
-240 -301 0
-272 -301 0
-1 -5 0
-1 -30 0
-1 -73 0
-1 -78 0
-5 -30 0
-5 -73 0
-5 -78 0
-30 -73 0
-30 -78 0
-73 -78 0
-6 -25 0
-6 -31 0
-6 -69 0
-6 -79 0
-25 -31 0
-25 -69 0
-25 -79 0
-31 -69 0
-31 -79 0
-69 -79 0
-32 -74 0
-32 -80 0
-74 -80 0
-2 -7 0
-2 -26 0
-2 -33 0
-2 -70 0
-2 -75 0
-2 -81 0
-7 -26 0
-7 -33 0
-7 -70 0
-7 -75 0
-7 -81 0
-26 -33 0
-26 -70 0
-26 -75 0
-26 -81 0
-33 -70 0
-33 -75 0
-33 -81 0
-70 -75 0
-70 -81 0
-75 -81 0
-3 -8 0
-3 -27 0
-3 -34 0
-8 -27 0
-8 -34 0
-27 -34 0
-28 -35 0
-28 -71 0
-28 -76 0
-28 -82 0
-35 -71 0
-35 -76 0
-35 -82 0
-71 -76 0
-71 -82 0
-76 -82 0
-4 -9 0
-4 -29 0
-4 -36 0
-4 -72 0
-4 -77 0
-4 -83 0
-9 -29 0
-9 -36 0
-9 -72 0
-9 -77 0
-9 -83 0
-29 -36 0
-29 -72 0
-29 -77 0
-29 -83 0
-36 -72 0
-36 -77 0
-36 -83 0
-72 -77 0
-72 -83 0
-77 -83 0
-10 -17 0
-10 -37 0
-10 -47 0
-10 -90 0
-17 -37 0
-17 -47 0
-17 -90 0
-37 -47 0
-37 -90 0
-47 -90 0
-13 -18 0
-13 -42 0
-13 -48 0
-13 -84 0
-13 -91 0
-18 -42 0
-18 -48 0
-18 -84 0
-18 -91 0
-42 -48 0
-42 -84 0
-42 -91 0
-48 -84 0
-48 -91 0
-84 -91 0
-11 -14 0
-11 -85 0
-14 -85 0
-38 -43 0
-38 -49 0
-38 -86 0
-38 -92 0
-43 -49 0
-43 -86 0
-43 -92 0
-49 -86 0
-49 -92 0
-86 -92 0
-39 -44 0
-39 -50 0
-39 -87 0
-39 -93 0
-44 -50 0
-44 -87 0
-44 -93 0
-50 -87 0
-50 -93 0
-87 -93 0
-15 -19 0
-15 -45 0
-15 -51 0
-15 -88 0
-15 -94 0
-19 -45 0
-19 -51 0
-19 -88 0
-19 -94 0
-45 -51 0
-45 -88 0
-45 -94 0
-51 -88 0
-51 -94 0
-88 -94 0
-40 -52 0
-40 -95 0
-52 -95 0
-12 -16 0
-12 -20 0
-12 -41 0
-12 -46 0
-12 -53 0
-12 -89 0
-12 -96 0
-16 -20 0
-16 -41 0
-16 -46 0
-16 -53 0
-16 -89 0
-16 -96 0
-20 -41 0
-20 -46 0
-20 -53 0
-20 -89 0
-20 -96 0
-41 -46 0
-41 -53 0
-41 -89 0
-41 -96 0
-46 -53 0
-46 -89 0
-46 -96 0
-53 -89 0
-53 -96 0
-89 -96 0
-21 -54 0
-21 -59 0
-21 -63 0
-21 -97 0
-21 -102 0
-21 -107 0
-54 -59 0
-54 -63 0
-54 -97 0
-54 -102 0
-54 -107 0
-59 -63 0
-59 -97 0
-59 -102 0
-59 -107 0
-63 -97 0
-63 -102 0
-63 -107 0
-97 -102 0
-97 -107 0
-102 -107 0
-22 -55 0
-22 -60 0
-22 -64 0
-22 -98 0
-22 -103 0
-22 -108 0
-55 -60 0
-55 -64 0
-55 -98 0
-55 -103 0
-55 -108 0
-60 -64 0
-60 -98 0
-60 -103 0
-60 -108 0
-64 -98 0
-64 -103 0
-64 -108 0
-98 -103 0
-98 -108 0
-103 -108 0
-23 -99 0
-23 -104 0
-23 -109 0
-99 -104 0
-99 -109 0
-104 -109 0
-61 -65 0
-61 -105 0
-61 -110 0
-65 -105 0
-65 -110 0
-105 -110 0
-56 -66 0
-56 -100 0
-56 -111 0
-66 -100 0
-66 -111 0
-100 -111 0
-57 -67 0
-24 -58 0
-24 -62 0
-24 -68 0
-24 -101 0
-24 -106 0
-24 -112 0
-58 -62 0
-58 -68 0
-58 -101 0
-58 -106 0
-58 -112 0
-62 -68 0
-62 -101 0
-62 -106 0
-62 -112 0
-68 -101 0
-68 -106 0
-68 -112 0
-101 -106 0
-101 -112 0
-106 -112 0
-117 -150 0
-117 -155 0
-150 -155 0
-113 -118 0
-113 -146 0
-113 -156 0
-113 -179 0
-113 -190 0
-118 -146 0
-118 -156 0
-118 -179 0
-118 -190 0
-146 -156 0
-146 -179 0
-146 -190 0
-156 -179 0
-156 -190 0
-179 -190 0
-119 -151 0
-119 -157 0
-119 -185 0
-119 -191 0
-151 -157 0
-151 -185 0
-151 -191 0
-157 -185 0
-157 -191 0
-185 -191 0
-147 -152 0
-147 -158 0
-147 -180 0
-147 -186 0
-147 -192 0
-152 -158 0
-152 -180 0
-152 -186 0
-152 -192 0
-158 -180 0
-158 -186 0
-158 -192 0
-180 -186 0
-180 -192 0
-186 -192 0
-114 -120 0
-114 -148 0
-114 -153 0
-114 -159 0
-114 -181 0
-114 -187 0
-114 -193 0
-120 -148 0
-120 -153 0
-120 -159 0
-120 -181 0
-120 -187 0
-120 -193 0
-148 -153 0
-148 -159 0
-148 -181 0
-148 -187 0
-148 -193 0
-153 -159 0
-153 -181 0
-153 -187 0
-153 -193 0
-159 -181 0
-159 -187 0
-159 -193 0
-181 -187 0
-181 -193 0
-187 -193 0
-115 -121 0
-115 -182 0
-115 -188 0
-115 -194 0
-121 -182 0
-121 -188 0
-121 -194 0
-182 -188 0
-182 -194 0
-188 -194 0
-116 -122 0
-116 -149 0
-116 -154 0
-116 -160 0
-116 -183 0
-116 -189 0
-116 -195 0
-122 -149 0
-122 -154 0
-122 -160 0
-122 -183 0
-122 -189 0
-122 -195 0
-149 -154 0
-149 -160 0
-149 -183 0
-149 -189 0
-149 -195 0
-154 -160 0
-154 -183 0
-154 -189 0
-154 -195 0
-160 -183 0
-160 -189 0
-160 -195 0
-183 -189 0
-183 -195 0
-189 -195 0
-164 -200 0
-123 -127 0
-123 -161 0
-123 -196 0
-127 -161 0
-127 -196 0
-161 -196 0
-124 -128 0
-124 -132 0
-124 -197 0
-124 -201 0
-128 -132 0
-128 -197 0
-128 -201 0
-132 -197 0
-132 -201 0
-197 -201 0
-125 -129 0
-125 -133 0
-125 -162 0
-125 -165 0
-125 -198 0
-125 -202 0
-129 -133 0
-129 -162 0
-129 -165 0
-129 -198 0
-129 -202 0
-133 -162 0
-133 -165 0
-133 -198 0
-133 -202 0
-162 -165 0
-162 -198 0
-162 -202 0
-165 -198 0
-165 -202 0
-198 -202 0
-166 -203 0
-130 -134 0
-130 -167 0
-130 -204 0
-134 -167 0
-134 -204 0
-167 -204 0
-126 -131 0
-126 -135 0
-126 -163 0
-126 -168 0
-126 -199 0
-126 -205 0
-131 -135 0
-131 -163 0
-131 -168 0
-131 -199 0
-131 -205 0
-135 -163 0
-135 -168 0
-135 -199 0
-135 -205 0
-163 -168 0
-163 -199 0
-163 -205 0
-168 -199 0
-168 -205 0
-199 -205 0
-136 -141 0
-136 -169 0
-136 -174 0
-141 -169 0
-141 -174 0
-169 -174 0
-170 -175 0
-170 -206 0
-170 -211 0
-170 -216 0
-175 -206 0
-175 -211 0
-175 -216 0
-206 -211 0
-206 -216 0
-211 -216 0
-137 -142 0
-137 -171 0
-137 -176 0
-137 -207 0
-137 -212 0
-137 -217 0
-142 -171 0
-142 -176 0
-142 -207 0
-142 -212 0
-142 -217 0
-171 -176 0
-171 -207 0
-171 -212 0
-171 -217 0
-176 -207 0
-176 -212 0
-176 -217 0
-207 -212 0
-207 -217 0
-212 -217 0
-138 -172 0
-138 -208 0
-138 -213 0
-172 -208 0
-172 -213 0
-208 -213 0
-139 -143 0
-139 -177 0
-139 -209 0
-139 -218 0
-143 -177 0
-143 -209 0
-143 -218 0
-177 -209 0
-177 -218 0
-209 -218 0
-144 -214 0
-144 -219 0
-214 -219 0
-140 -145 0
-140 -173 0
-140 -178 0
-140 -210 0
-140 -215 0
-140 -220 0
-145 -173 0
-145 -178 0
-145 -210 0
-145 -215 0
-145 -220 0
-173 -178 0
-173 -210 0
-173 -215 0
-173 -220 0
-178 -210 0
-178 -215 0
-178 -220 0
-210 -215 0
-210 -220 0
-215 -220 0
-221 -226 0
-241 -246 0
-241 -273 0
-246 -273 0
-242 -247 0
-242 -274 0
-247 -274 0
-222 -224 0
-222 -227 0
-222 -243 0
-222 -248 0
-222 -275 0
-224 -227 0
-224 -243 0
-224 -248 0
-224 -275 0
-227 -243 0
-227 -248 0
-227 -275 0
-243 -248 0
-243 -275 0
-248 -275 0
-223 -225 0
-223 -228 0
-223 -244 0
-223 -249 0
-223 -276 0
-225 -228 0
-225 -244 0
-225 -249 0
-225 -276 0
-228 -244 0
-228 -249 0
-228 -276 0
-244 -249 0
-244 -276 0
-249 -276 0
-229 -250 0
-229 -254 0
-250 -254 0
-230 -277 0
-230 -280 0
-230 -283 0
-277 -280 0
-277 -283 0
-280 -283 0
-251 -255 0
-251 -281 0
-251 -284 0
-255 -281 0
-255 -284 0
-281 -284 0
-256 -278 0
-256 -285 0
-278 -285 0
-231 -252 0
-231 -257 0
-231 -279 0
-231 -282 0
-231 -286 0
-252 -257 0
-252 -279 0
-252 -282 0
-252 -286 0
-257 -279 0
-257 -282 0
-257 -286 0
-279 -282 0
-279 -286 0
-282 -286 0
-232 -236 0
-232 -258 0
-232 -262 0
-232 -267 0
-236 -258 0
-236 -262 0
-236 -267 0
-258 -262 0
-258 -267 0
-262 -267 0
-233 -237 0
-233 -287 0
-233 -292 0
-233 -297 0
-237 -287 0
-237 -292 0
-237 -297 0
-287 -292 0
-287 -297 0
-292 -297 0
-259 -263 0
-259 -268 0
-259 -288 0
-259 -293 0
-259 -298 0
-263 -268 0
-263 -288 0
-263 -293 0
-263 -298 0
-268 -288 0
-268 -293 0
-268 -298 0
-288 -293 0
-288 -298 0
-293 -298 0
-238 -264 0
-238 -269 0
-264 -269 0
-234 -289 0
-234 -294 0
-289 -294 0
-260 -270 0
-260 -290 0
-260 -299 0
-270 -290 0
-270 -299 0
-290 -299 0
-239 -265 0
-239 -271 0
-239 -295 0
-239 -300 0
-265 -271 0
-265 -295 0
-265 -300 0
-271 -295 0
-271 -300 0
-295 -300 0
-235 -240 0
-235 -261 0
-235 -266 0
-235 -272 0
-235 -291 0
-235 -296 0
-235 -301 0
-240 -261 0
-240 -266 0
-240 -272 0
-240 -291 0
-240 -296 0
-240 -301 0
-261 -266 0
-261 -272 0
-261 -291 0
-261 -296 0
-261 -301 0
-266 -272 0
-266 -291 0
-266 -296 0
-266 -301 0
-272 -291 0
-272 -296 0
-272 -301 0
-291 -296 0
-291 -301 0
-296 -301 0
1 2 3 4 0
5 6 7 8 9 0
10 11 12 0
13 14 15 16 0
17 18 19 20 0
21 22 23 24 0
25 26 27 28 29 0
30 31 32 33 34 35 36 0
37 38 39 40 41 0
42 43 44 45 46 0
47 48 49 50 51 52 53 0
54 55 56 57 58 0
59 60 61 62 0
63 64 65 66 67 68 0
69 70 71 72 0
73 74 75 76 77 0
78 79 80 81 82 83 0
84 85 86 87 88 89 0
90 91 92 93 94 95 96 0
97 98 99 100 101 0
102 103 104 105 106 0
107 108 109 110 111 112 0
113 114 115 116 0
117 118 119 120 121 122 0
123 124 125 126 0
127 128 129 130 131 0
132 133 134 135 0
136 137 138 139 140 0
141 142 143 144 145 0
146 147 148 149 0
150 151 152 153 154 0
155 156 157 158 159 160 0
161 162 163 0
164 165 166 167 168 0
169 170 171 172 173 0
174 175 176 177 178 0
179 180 181 182 183 0
184 185 186 187 188 189 0
190 191 192 193 194 195 0
196 197 198 199 0
200 201 202 203 204 205 0
206 207 208 209 210 0
211 212 213 214 215 0
216 217 218 219 220 0
221 222 223 0
224 225 0
226 227 228 0
229 230 231 0
232 233 234 235 0
236 237 238 239 240 0
241 242 243 244 0
245 246 247 248 249 0
250 251 252 0
253 254 255 256 257 0
258 259 260 261 0
262 263 264 265 266 0
267 268 269 270 271 272 0
273 274 275 276 0
277 278 279 0
280 281 282 0
283 284 285 286 0
287 288 289 290 291 0
292 293 294 295 296 0
297 298 299 300 301 0
1 5 10 17 21 0
6 13 18 22 0
11 14 23 0
2 7 15 19 0
3 8 0
4 9 12 16 20 24 0
30 37 47 54 59 63 0
25 31 42 48 55 60 64 0
38 43 49 61 65 0
32 39 44 50 0
26 33 45 51 56 66 0
27 34 57 67 0
28 35 40 52 0
29 36 41 46 53 58 62 68 0
73 78 90 97 102 107 0
69 79 84 91 98 103 108 0
85 99 104 109 0
86 92 105 110 0
74 80 87 93 0
70 75 81 88 94 100 111 0
71 76 82 95 0
72 77 83 89 96 101 106 112 0
117 136 141 0
113 118 123 127 137 142 0
124 128 132 0
119 125 129 133 138 0
114 120 130 134 139 143 0
115 121 144 0
116 122 126 131 135 140 145 0
150 155 169 174 0
164 170 175 0
146 156 161 171 176 0
151 157 162 165 172 0
147 152 158 166 0
148 153 159 167 177 0
149 154 160 163 168 173 178 0
200 206 211 216 0
179 190 196 207 212 217 0
184 197 201 0
185 191 198 202 208 213 0
180 186 192 203 0
181 187 193 204 209 218 0
182 188 194 214 219 0
183 189 195 199 205 210 215 220 0
232 236 0
221 226 233 237 0
229 238 0
230 234 0
222 224 227 239 0
223 225 228 231 235 240 0
253 258 262 267 0
245 259 263 268 0
250 254 264 269 0
241 246 260 270 0
242 247 251 255 0
243 248 256 265 271 0
244 249 252 257 261 266 272 0
287 292 297 0
288 293 298 0
277 280 283 289 294 0
273 290 299 0
274 281 284 0
275 278 285 295 300 0
276 279 282 286 291 296 301 0
25 69 221 0
113 146 179 0
26 70 147 180 0
27 114 148 181 0
28 71 115 182 222 0
29 72 116 149 183 223 0
1 73 150 0
184 0
74 151 185 0
2 75 152 186 241 273 0
3 153 187 242 274 0
76 188 224 243 275 0
4 77 154 189 225 244 276 0
5 30 78 117 155 0
6 31 79 226 0
118 156 190 245 0
32 80 119 157 191 0
7 33 81 158 192 246 0
8 34 120 159 193 247 0
35 82 121 194 227 248 0
9 36 83 122 160 195 228 249 0
10 37 0
11 123 161 196 0
38 124 197 0
39 125 162 198 277 0
40 278 0
12 41 126 163 199 279 0
13 42 84 0
14 85 127 0
43 86 128 229 250 0
44 87 129 230 280 0
15 45 88 0
130 251 281 0
16 46 89 131 231 252 282 0
17 47 90 253 0
18 48 91 164 200 0
49 92 132 201 254 0
50 93 133 165 202 283 0
19 51 94 166 203 0
134 167 204 255 284 0
52 95 256 285 0
20 53 96 135 168 205 257 286 0
54 97 136 232 258 0
55 98 206 233 287 0
99 137 207 259 288 0
138 208 234 289 0
56 100 260 290 0
57 139 209 0
58 101 140 210 235 261 291 0
21 59 102 169 262 0
22 60 103 170 211 292 0
23 104 171 212 263 293 0
61 105 264 0
172 213 294 0
214 265 295 0
24 62 106 173 215 266 296 0
63 107 141 174 236 267 0
64 108 175 216 237 297 0
109 142 176 217 268 298 0
65 110 238 269 0
66 111 270 299 0
67 143 177 218 0
144 219 239 271 300 0
68 112 145 178 220 240 272 301 0
1 5 30 73 78 0
6 25 31 69 79 0
32 74 80 0
2 7 26 33 70 75 81 0
3 8 27 34 0
28 35 71 76 82 0
4 9 29 36 72 77 83 0
10 17 37 47 90 0
13 18 42 48 84 91 0
11 14 85 0
38 43 49 86 92 0
39 44 50 87 93 0
15 19 45 51 88 94 0
40 52 95 0
12 16 20 41 46 53 89 96 0
21 54 59 63 97 102 107 0
22 55 60 64 98 103 108 0
23 99 104 109 0
61 65 105 110 0
56 66 100 111 0
57 67 0
24 58 62 68 101 106 112 0
117 150 155 0
113 118 146 156 179 190 0
184 0
119 151 157 185 191 0
147 152 158 180 186 192 0
114 120 148 153 159 181 187 193 0
115 121 182 188 194 0
116 122 149 154 160 183 189 195 0
164 200 0
123 127 161 196 0
124 128 132 197 201 0
125 129 133 162 165 198 202 0
166 203 0
130 134 167 204 0
126 131 135 163 168 199 205 0
136 141 169 174 0
170 175 206 211 216 0
137 142 171 176 207 212 217 0
138 172 208 213 0
139 143 177 209 218 0
144 214 219 0
140 145 173 178 210 215 220 0
221 226 0
245 0
241 246 273 0
242 247 274 0
222 224 227 243 248 275 0
223 225 228 244 249 276 0
253 0
229 250 254 0
230 277 280 283 0
251 255 281 284 0
256 278 285 0
231 252 257 279 282 286 0
232 236 258 262 267 0
233 237 287 292 297 0
259 263 268 288 293 298 0
238 264 269 0
234 289 294 0
260 270 290 299 0
239 265 271 295 300 0
235 240 261 266 272 291 296 301 0
